p cnf 430 1488
-191 146 0
-191 -104 0
-191 144 0
-191 -27 0
-191 28 0
191 -146 104 -144 27 -28 0
-192 -66 0
-192 -24 0
-192 -74 0
-192 -76 0
-192 157 0
192 66 24 74 76 -157 0
-193 -99 0
-193 139 0
-193 120 0
-193 117 0
-193 -69 0
193 99 -139 -120 -117 69 0
-194 -31 0
-194 135 0
-194 163 0
-194 88 0
-194 157 0
194 31 -135 -163 -88 -157 0
-195 181 0
-195 -141 0
-195 52 0
-195 25 0
-195 -24 0
195 -181 141 -52 -25 24 0
191 192 193 194 195 0
-196 -142 0
-196 25 0
-196 -83 0
-196 157 0
-196 -21 0
196 142 -25 83 -157 21 0
-197 -105 0
-197 -69 0
-197 168 0
-197 48 0
-197 16 0
197 105 69 -168 -48 -16 0
-198 -34 0
-198 164 0
-198 107 0
-198 80 0
-198 163 0
198 34 -164 -107 -80 -163 0
-199 131 0
-199 -4 0
-199 -17 0
-199 -76 0
-199 -55 0
199 -131 4 17 76 55 0
-200 108 0
-200 -78 0
-200 8 0
-200 -50 0
-200 147 0
200 -108 78 -8 50 -147 0
196 197 198 199 200 0
-201 -94 0
-201 -173 0
-201 65 0
-201 120 0
-201 85 0
201 94 173 -65 -120 -85 0
-202 -11 0
-202 -59 0
-202 20 0
-202 -78 0
-202 -46 0
202 11 59 -20 78 46 0
-203 154 0
-203 -84 0
-203 -56 0
-203 45 0
-203 26 0
203 -154 84 56 -45 -26 0
-204 -130 0
-204 -120 0
-204 177 0
-204 -69 0
-204 47 0
204 130 120 -177 69 -47 0
-205 -14 0
-205 174 0
-205 -136 0
-205 -77 0
-205 152 0
205 14 -174 136 77 -152 0
201 202 203 204 205 0
-206 -103 0
-206 185 0
-206 -136 0
-206 127 0
-206 -54 0
206 103 -185 136 -127 54 0
-207 -16 0
-207 -63 0
-207 186 0
-207 -90 0
-207 -143 0
207 16 63 -186 90 143 0
-208 -144 0
-208 -127 0
-208 -7 0
-208 -67 0
-208 151 0
208 144 127 7 67 -151 0
-209 -126 0
-209 176 0
-209 -139 0
-209 148 0
-209 127 0
209 126 -176 139 -148 -127 0
-210 -166 0
-210 124 0
-210 -173 0
-210 -86 0
-210 -139 0
210 166 -124 173 86 139 0
206 207 208 209 210 0
-211 57 0
-211 -118 0
-211 167 0
-211 -71 0
-211 -135 0
211 -57 118 -167 71 135 0
-212 -161 0
-212 116 0
-212 -170 0
-212 -150 0
-212 63 0
212 161 -116 170 150 -63 0
-213 -152 0
-213 -189 0
-213 -61 0
-213 186 0
-213 10 0
213 152 189 61 -186 -10 0
-214 112 0
-214 -5 0
-214 -142 0
-214 -186 0
-214 -1 0
214 -112 5 142 186 1 0
-215 -136 0
-215 28 0
-215 94 0
-215 -54 0
-215 164 0
215 136 -28 -94 54 -164 0
211 212 213 214 215 0
-216 25 0
-216 -83 0
-216 30 0
-216 182 0
-216 58 0
216 -25 83 -30 -182 -58 0
-217 95 0
-217 -56 0
-217 -122 0
-217 -46 0
-217 127 0
217 -95 56 122 46 -127 0
-218 145 0
-218 -38 0
-218 -161 0
-218 28 0
-218 25 0
218 -145 38 161 -28 -25 0
-219 26 0
-219 -140 0
-219 23 0
-219 119 0
-219 122 0
219 -26 140 -23 -119 -122 0
-220 144 0
-220 74 0
-220 -3 0
-220 139 0
-220 179 0
220 -144 -74 3 -139 -179 0
216 217 218 219 220 0
-221 -146 0
-221 159 0
-221 -97 0
-221 -103 0
-221 158 0
221 146 -159 97 103 -158 0
-222 132 0
-222 -1 0
-222 47 0
-222 81 0
-222 -137 0
222 -132 1 -47 -81 137 0
-223 -2 0
-223 111 0
-223 179 0
-223 79 0
-223 -158 0
223 2 -111 -179 -79 158 0
-224 -161 0
-224 32 0
-224 148 0
-224 38 0
-224 167 0
224 161 -32 -148 -38 -167 0
-225 -74 0
-225 99 0
-225 -60 0
-225 26 0
-225 31 0
225 74 -99 60 -26 -31 0
221 222 223 224 225 0
-226 142 0
-226 -172 0
-226 134 0
-226 -52 0
-226 -20 0
226 -142 172 -134 52 20 0
-227 95 0
-227 114 0
-227 104 0
-227 93 0
-227 90 0
227 -95 -114 -104 -93 -90 0
-228 18 0
-228 -109 0
-228 121 0
-228 156 0
-228 51 0
228 -18 109 -121 -156 -51 0
-229 -60 0
-229 38 0
-229 180 0
-229 -5 0
-229 -131 0
229 60 -38 -180 5 131 0
-230 57 0
-230 -146 0
-230 41 0
-230 -11 0
-230 -10 0
230 -57 146 -41 11 10 0
226 227 228 229 230 0
-231 85 0
-231 -57 0
-231 86 0
-231 -60 0
-231 -174 0
231 -85 57 -86 60 174 0
-232 75 0
-232 132 0
-232 -124 0
-232 54 0
-232 158 0
232 -75 -132 124 -54 -158 0
-233 -181 0
-233 153 0
-233 -7 0
-233 123 0
-233 4 0
233 181 -153 7 -123 -4 0
-234 169 0
-234 131 0
-234 -113 0
-234 184 0
-234 182 0
234 -169 -131 113 -184 -182 0
-235 8 0
-235 -83 0
-235 -12 0
-235 79 0
-235 2 0
235 -8 83 12 -79 -2 0
231 232 233 234 235 0
-236 -37 0
-236 -92 0
-236 -176 0
-236 34 0
-236 -30 0
236 37 92 176 -34 30 0
-237 -30 0
-237 143 0
-237 -104 0
-237 -111 0
-237 22 0
237 30 -143 104 111 -22 0
-238 62 0
-238 -134 0
-238 121 0
-238 -174 0
-238 -145 0
238 -62 134 -121 174 145 0
-239 24 0
-239 -80 0
-239 93 0
-239 44 0
-239 122 0
239 -24 80 -93 -44 -122 0
-240 -45 0
-240 -18 0
-240 -154 0
-240 -120 0
-240 141 0
240 45 18 154 120 -141 0
236 237 238 239 240 0
-241 -39 0
-241 -83 0
-241 -48 0
-241 -186 0
-241 15 0
241 39 83 48 186 -15 0
-242 -164 0
-242 38 0
-242 -171 0
-242 30 0
-242 130 0
242 164 -38 171 -30 -130 0
-243 34 0
-243 162 0
-243 -163 0
-243 -111 0
-243 40 0
243 -34 -162 163 111 -40 0
-244 131 0
-244 124 0
-244 125 0
-244 57 0
-244 77 0
244 -131 -124 -125 -57 -77 0
-245 131 0
-245 149 0
-245 -132 0
-245 3 0
-245 -49 0
245 -131 -149 132 -3 49 0
241 242 243 244 245 0
-246 -90 0
-246 118 0
-246 -38 0
-246 -147 0
-246 46 0
246 90 -118 38 147 -46 0
-247 121 0
-247 -39 0
-247 -106 0
-247 186 0
-247 -183 0
247 -121 39 106 -186 183 0
-248 60 0
-248 -63 0
-248 143 0
-248 -148 0
-248 100 0
248 -60 63 -143 148 -100 0
-249 143 0
-249 171 0
-249 -133 0
-249 59 0
-249 142 0
249 -143 -171 133 -59 -142 0
-250 189 0
-250 157 0
-250 151 0
-250 -27 0
-250 109 0
250 -189 -157 -151 27 -109 0
246 247 248 249 250 0
-251 15 0
-251 -182 0
-251 -95 0
-251 -82 0
-251 84 0
251 -15 182 95 82 -84 0
-252 77 0
-252 166 0
-252 -57 0
-252 -171 0
-252 132 0
252 -77 -166 57 171 -132 0
-253 103 0
-253 -85 0
-253 28 0
-253 79 0
-253 -88 0
253 -103 85 -28 -79 88 0
-254 -90 0
-254 -161 0
-254 101 0
-254 -180 0
-254 -184 0
254 90 161 -101 180 184 0
-255 -24 0
-255 137 0
-255 130 0
-255 124 0
-255 101 0
255 24 -137 -130 -124 -101 0
251 252 253 254 255 0
-256 -119 0
-256 -154 0
-256 1 0
-256 181 0
-256 -29 0
256 119 154 -1 -181 29 0
-257 -100 0
-257 90 0
-257 -78 0
-257 -7 0
-257 -11 0
257 100 -90 78 7 11 0
-258 26 0
-258 112 0
-258 -48 0
-258 -131 0
-258 -187 0
258 -26 -112 48 131 187 0
-259 -96 0
-259 -137 0
-259 16 0
-259 43 0
-259 -101 0
259 96 137 -16 -43 101 0
-260 -13 0
-260 -124 0
-260 90 0
-260 105 0
-260 -188 0
260 13 124 -90 -105 188 0
256 257 258 259 260 0
-261 162 0
-261 95 0
-261 59 0
-261 103 0
-261 -164 0
261 -162 -95 -59 -103 164 0
-262 147 0
-262 111 0
-262 169 0
-262 33 0
-262 139 0
262 -147 -111 -169 -33 -139 0
-263 -188 0
-263 6 0
-263 -24 0
-263 139 0
-263 -94 0
263 188 -6 24 -139 94 0
-264 17 0
-264 4 0
-264 -129 0
-264 35 0
-264 -14 0
264 -17 -4 129 -35 14 0
-265 6 0
-265 180 0
-265 -98 0
-265 -165 0
-265 -171 0
265 -6 -180 98 165 171 0
261 262 263 264 265 0
-266 -96 0
-266 97 0
-266 85 0
-266 -41 0
-266 136 0
266 96 -97 -85 41 -136 0
-267 -76 0
-267 99 0
-267 61 0
-267 133 0
-267 19 0
267 76 -99 -61 -133 -19 0
-268 120 0
-268 74 0
-268 139 0
-268 -90 0
-268 -148 0
268 -120 -74 -139 90 148 0
-269 155 0
-269 -24 0
-269 114 0
-269 -44 0
-269 73 0
269 -155 24 -114 44 -73 0
-270 148 0
-270 5 0
-270 -27 0
-270 -61 0
-270 95 0
270 -148 -5 27 61 -95 0
266 267 268 269 270 0
-271 -175 0
-271 179 0
-271 -135 0
-271 -3 0
-271 -9 0
271 175 -179 135 3 9 0
-272 35 0
-272 -39 0
-272 -23 0
-272 78 0
-272 -11 0
272 -35 39 23 -78 11 0
-273 -188 0
-273 -132 0
-273 -110 0
-273 -154 0
-273 -155 0
273 188 132 110 154 155 0
-274 148 0
-274 -166 0
-274 -12 0
-274 1 0
-274 144 0
274 -148 166 12 -1 -144 0
-275 -93 0
-275 163 0
-275 -77 0
-275 2 0
-275 -124 0
275 93 -163 77 -2 124 0
271 272 273 274 275 0
-276 45 0
-276 -126 0
-276 5 0
-276 -27 0
-276 -150 0
276 -45 126 -5 27 150 0
-277 -54 0
-277 -95 0
-277 -141 0
-277 -139 0
-277 176 0
277 54 95 141 139 -176 0
-278 -95 0
-278 23 0
-278 -80 0
-278 -39 0
-278 15 0
278 95 -23 80 39 -15 0
-279 -127 0
-279 55 0
-279 -97 0
-279 -29 0
-279 -155 0
279 127 -55 97 29 155 0
-280 -158 0
-280 131 0
-280 75 0
-280 -178 0
-280 -170 0
280 158 -131 -75 178 170 0
276 277 278 279 280 0
-281 119 0
-281 -189 0
-281 -166 0
-281 -127 0
-281 31 0
281 -119 189 166 127 -31 0
-282 -107 0
-282 -149 0
-282 18 0
-282 75 0
-282 -37 0
282 107 149 -18 -75 37 0
-283 12 0
-283 -87 0
-283 121 0
-283 -68 0
-283 -166 0
283 -12 87 -121 68 166 0
-284 -39 0
-284 -92 0
-284 -63 0
-284 -147 0
-284 53 0
284 39 92 63 147 -53 0
-285 129 0
-285 45 0
-285 -34 0
-285 164 0
-285 -9 0
285 -129 -45 34 -164 9 0
281 282 283 284 285 0
-286 -131 0
-286 -34 0
-286 23 0
-286 168 0
-286 114 0
286 131 34 -23 -168 -114 0
-287 -11 0
-287 -50 0
-287 10 0
-287 -42 0
-287 -37 0
287 11 50 -10 42 37 0
-288 131 0
-288 136 0
-288 152 0
-288 -31 0
-288 48 0
288 -131 -136 -152 31 -48 0
-289 -12 0
-289 -163 0
-289 164 0
-289 24 0
-289 70 0
289 12 163 -164 -24 -70 0
-290 189 0
-290 -100 0
-290 -108 0
-290 -98 0
-290 46 0
290 -189 100 108 98 -46 0
286 287 288 289 290 0
-291 156 0
-291 -14 0
-291 21 0
-291 42 0
-291 100 0
291 -156 14 -21 -42 -100 0
-292 -173 0
-292 87 0
-292 4 0
-292 -39 0
-292 78 0
292 173 -87 -4 39 -78 0
-293 152 0
-293 101 0
-293 81 0
-293 10 0
-293 72 0
293 -152 -101 -81 -10 -72 0
-294 -151 0
-294 -105 0
-294 26 0
-294 130 0
-294 -39 0
294 151 105 -26 -130 39 0
-295 -6 0
-295 -141 0
-295 -58 0
-295 76 0
-295 67 0
295 6 141 58 -76 -67 0
291 292 293 294 295 0
-296 -86 0
-296 -3 0
-296 -136 0
-296 20 0
-296 -106 0
296 86 3 136 -20 106 0
-297 -129 0
-297 18 0
-297 137 0
-297 63 0
-297 85 0
297 129 -18 -137 -63 -85 0
-298 160 0
-298 133 0
-298 73 0
-298 181 0
-298 -82 0
298 -160 -133 -73 -181 82 0
-299 148 0
-299 -144 0
-299 115 0
-299 129 0
-299 -62 0
299 -148 144 -115 -129 62 0
-300 -118 0
-300 62 0
-300 117 0
-300 -41 0
-300 -28 0
300 118 -62 -117 41 28 0
296 297 298 299 300 0
-301 -168 0
-301 -116 0
-301 16 0
-301 47 0
-301 -107 0
301 168 116 -16 -47 107 0
-302 -144 0
-302 -96 0
-302 -89 0
-302 -174 0
-302 84 0
302 144 96 89 174 -84 0
-303 -19 0
-303 -166 0
-303 92 0
-303 132 0
-303 -87 0
303 19 166 -92 -132 87 0
-304 -151 0
-304 -117 0
-304 -180 0
-304 179 0
-304 161 0
304 151 117 180 -179 -161 0
-305 -9 0
-305 -103 0
-305 -102 0
-305 -171 0
-305 -119 0
305 9 103 102 171 119 0
301 302 303 304 305 0
-306 132 0
-306 -39 0
-306 -166 0
-306 -106 0
-306 73 0
306 -132 39 166 106 -73 0
-307 -40 0
-307 100 0
-307 148 0
-307 41 0
-307 141 0
307 40 -100 -148 -41 -141 0
-308 32 0
-308 -59 0
-308 -30 0
-308 109 0
-308 -162 0
308 -32 59 30 -109 162 0
-309 177 0
-309 -186 0
-309 97 0
-309 33 0
-309 103 0
309 -177 186 -97 -33 -103 0
-310 -132 0
-310 -170 0
-310 129 0
-310 102 0
-310 -16 0
310 132 170 -129 -102 16 0
306 307 308 309 310 0
-311 -32 0
-311 186 0
-311 -85 0
-311 60 0
-311 -180 0
311 32 -186 85 -60 180 0
-312 152 0
-312 133 0
-312 -2 0
-312 -45 0
-312 -166 0
312 -152 -133 2 45 166 0
-313 -13 0
-313 -123 0
-313 -121 0
-313 147 0
-313 186 0
313 13 123 121 -147 -186 0
-314 141 0
-314 188 0
-314 139 0
-314 -65 0
-314 160 0
314 -141 -188 -139 65 -160 0
-315 -41 0
-315 54 0
-315 52 0
-315 -11 0
-315 -71 0
315 41 -54 -52 11 71 0
311 312 313 314 315 0
-316 -161 0
-316 109 0
-316 129 0
-316 85 0
-316 -146 0
316 161 -109 -129 -85 146 0
-317 165 0
-317 -22 0
-317 -6 0
-317 78 0
-317 94 0
317 -165 22 6 -78 -94 0
-318 -12 0
-318 24 0
-318 -154 0
-318 -152 0
-318 -129 0
318 12 -24 154 152 129 0
-319 -1 0
-319 101 0
-319 82 0
-319 -36 0
-319 16 0
319 1 -101 -82 36 -16 0
-320 124 0
-320 118 0
-320 121 0
-320 166 0
-320 5 0
320 -124 -118 -121 -166 -5 0
316 317 318 319 320 0
-321 50 0
-321 -145 0
-321 -67 0
-321 164 0
-321 172 0
321 -50 145 67 -164 -172 0
-322 30 0
-322 -114 0
-322 -115 0
-322 -130 0
-322 -178 0
322 -30 114 115 130 178 0
-323 30 0
-323 -74 0
-323 -52 0
-323 -146 0
-323 159 0
323 -30 74 52 146 -159 0
-324 -19 0
-324 -50 0
-324 77 0
-324 158 0
-324 14 0
324 19 50 -77 -158 -14 0
-325 22 0
-325 65 0
-325 -79 0
-325 -81 0
-325 139 0
325 -22 -65 79 81 -139 0
321 322 323 324 325 0
-326 -105 0
-326 -127 0
-326 -87 0
-326 95 0
-326 -154 0
326 105 127 87 -95 154 0
-327 -118 0
-327 -31 0
-327 80 0
-327 39 0
-327 140 0
327 118 31 -80 -39 -140 0
-328 -141 0
-328 29 0
-328 114 0
-328 -174 0
-328 74 0
328 141 -29 -114 174 -74 0
-329 -176 0
-329 116 0
-329 143 0
-329 -7 0
-329 -61 0
329 176 -116 -143 7 61 0
-330 -73 0
-330 125 0
-330 -171 0
-330 -161 0
-330 -36 0
330 73 -125 171 161 36 0
326 327 328 329 330 0
-331 -187 0
-331 125 0
-331 50 0
-331 6 0
-331 120 0
331 187 -125 -50 -6 -120 0
-332 -26 0
-332 13 0
-332 -103 0
-332 168 0
-332 -60 0
332 26 -13 103 -168 60 0
-333 -37 0
-333 -36 0
-333 73 0
-333 88 0
-333 -147 0
333 37 36 -73 -88 147 0
-334 63 0
-334 32 0
-334 159 0
-334 162 0
-334 89 0
334 -63 -32 -159 -162 -89 0
-335 -29 0
-335 -22 0
-335 -17 0
-335 94 0
-335 -80 0
335 29 22 17 -94 80 0
331 332 333 334 335 0
-336 55 0
-336 -21 0
-336 5 0
-336 -15 0
-336 -157 0
336 -55 21 -5 15 157 0
-337 70 0
-337 37 0
-337 35 0
-337 -176 0
-337 -163 0
337 -70 -37 -35 176 163 0
-338 -72 0
-338 -160 0
-338 1 0
-338 75 0
-338 118 0
338 72 160 -1 -75 -118 0
-339 130 0
-339 7 0
-339 -94 0
-339 21 0
-339 -44 0
339 -130 -7 94 -21 44 0
-340 -169 0
-340 -104 0
-340 -12 0
-340 -28 0
-340 61 0
340 169 104 12 28 -61 0
336 337 338 339 340 0
-341 7 0
-341 -65 0
-341 143 0
-341 30 0
-341 136 0
341 -7 65 -143 -30 -136 0
-342 -102 0
-342 129 0
-342 20 0
-342 -183 0
-342 -142 0
342 102 -129 -20 183 142 0
-343 -8 0
-343 20 0
-343 -153 0
-343 -14 0
-343 56 0
343 8 -20 153 14 -56 0
-344 71 0
-344 99 0
-344 29 0
-344 158 0
-344 128 0
344 -71 -99 -29 -158 -128 0
-345 64 0
-345 -176 0
-345 -179 0
-345 190 0
-345 -65 0
345 -64 176 179 -190 65 0
341 342 343 344 345 0
-346 106 0
-346 119 0
-346 108 0
-346 23 0
-346 -25 0
346 -106 -119 -108 -23 25 0
-347 73 0
-347 -164 0
-347 -104 0
-347 89 0
-347 -121 0
347 -73 164 104 -89 121 0
-348 188 0
-348 58 0
-348 6 0
-348 152 0
-348 23 0
348 -188 -58 -6 -152 -23 0
-349 124 0
-349 92 0
-349 137 0
-349 -24 0
-349 -89 0
349 -124 -92 -137 24 89 0
-350 -118 0
-350 -29 0
-350 153 0
-350 -65 0
-350 49 0
350 118 29 -153 65 -49 0
346 347 348 349 350 0
-351 -180 0
-351 51 0
-351 60 0
-351 -79 0
-351 -55 0
351 180 -51 -60 79 55 0
-352 173 0
-352 -115 0
-352 184 0
-352 -8 0
-352 -149 0
352 -173 115 -184 8 149 0
-353 33 0
-353 -114 0
-353 -99 0
-353 81 0
-353 89 0
353 -33 114 99 -81 -89 0
-354 -99 0
-354 -173 0
-354 -51 0
-354 168 0
-354 154 0
354 99 173 51 -168 -154 0
-355 -18 0
-355 47 0
-355 -120 0
-355 -76 0
-355 28 0
355 18 -47 120 76 -28 0
351 352 353 354 355 0
-356 127 0
-356 90 0
-356 168 0
-356 -94 0
-356 190 0
356 -127 -90 -168 94 -190 0
-357 -98 0
-357 -181 0
-357 -11 0
-357 95 0
-357 -141 0
357 98 181 11 -95 141 0
-358 -51 0
-358 128 0
-358 21 0
-358 -20 0
-358 142 0
358 51 -128 -21 20 -142 0
-359 142 0
-359 76 0
-359 -94 0
-359 10 0
-359 -90 0
359 -142 -76 94 -10 90 0
-360 -21 0
-360 69 0
-360 113 0
-360 -176 0
-360 -173 0
360 21 -69 -113 176 173 0
356 357 358 359 360 0
-361 -129 0
-361 98 0
-361 -14 0
-361 69 0
-361 -4 0
361 129 -98 14 -69 4 0
-362 84 0
-362 -168 0
-362 122 0
-362 179 0
-362 106 0
362 -84 168 -122 -179 -106 0
-363 43 0
-363 122 0
-363 182 0
-363 69 0
-363 23 0
363 -43 -122 -182 -69 -23 0
-364 -174 0
-364 25 0
-364 -154 0
-364 -94 0
-364 38 0
364 174 -25 154 94 -38 0
-365 188 0
-365 94 0
-365 -48 0
-365 -8 0
-365 38 0
365 -188 -94 48 8 -38 0
361 362 363 364 365 0
-366 -162 0
-366 -174 0
-366 139 0
-366 61 0
-366 44 0
366 162 174 -139 -61 -44 0
-367 171 0
-367 -96 0
-367 -177 0
-367 -86 0
-367 -25 0
367 -171 96 177 86 25 0
-368 51 0
-368 -12 0
-368 74 0
-368 -45 0
-368 -134 0
368 -51 12 -74 45 134 0
-369 -125 0
-369 41 0
-369 127 0
-369 88 0
-369 -141 0
369 125 -41 -127 -88 141 0
-370 109 0
-370 140 0
-370 49 0
-370 -186 0
-370 162 0
370 -109 -140 -49 186 -162 0
366 367 368 369 370 0
-371 70 0
-371 -182 0
-371 133 0
-371 -50 0
-371 12 0
371 -70 182 -133 50 -12 0
-372 22 0
-372 68 0
-372 160 0
-372 -113 0
-372 83 0
372 -22 -68 -160 113 -83 0
-373 78 0
-373 91 0
-373 -27 0
-373 29 0
-373 161 0
373 -78 -91 27 -29 -161 0
-374 -189 0
-374 -140 0
-374 -19 0
-374 -87 0
-374 156 0
374 189 140 19 87 -156 0
-375 190 0
-375 26 0
-375 -177 0
-375 116 0
-375 153 0
375 -190 -26 177 -116 -153 0
371 372 373 374 375 0
-376 55 0
-376 63 0
-376 38 0
-376 -58 0
-376 -100 0
376 -55 -63 -38 58 100 0
-377 160 0
-377 -116 0
-377 46 0
-377 81 0
-377 -133 0
377 -160 116 -46 -81 133 0
-378 9 0
-378 116 0
-378 7 0
-378 -184 0
-378 119 0
378 -9 -116 -7 184 -119 0
-379 140 0
-379 66 0
-379 183 0
-379 118 0
-379 -21 0
379 -140 -66 -183 -118 21 0
-380 -80 0
-380 -135 0
-380 149 0
-380 -152 0
-380 102 0
380 80 135 -149 152 -102 0
376 377 378 379 380 0
-381 89 0
-381 112 0
-381 -153 0
-381 50 0
-381 11 0
381 -89 -112 153 -50 -11 0
-382 65 0
-382 -2 0
-382 -6 0
-382 16 0
-382 -9 0
382 -65 2 6 -16 9 0
-383 -187 0
-383 167 0
-383 176 0
-383 -33 0
-383 137 0
383 187 -167 -176 33 -137 0
-384 127 0
-384 -1 0
-384 113 0
-384 -101 0
-384 -115 0
384 -127 1 -113 101 115 0
-385 44 0
-385 -173 0
-385 -113 0
-385 132 0
-385 -98 0
385 -44 173 113 -132 98 0
381 382 383 384 385 0
-386 -156 0
-386 -29 0
-386 -117 0
-386 143 0
-386 -67 0
386 156 29 117 -143 67 0
-387 -43 0
-387 182 0
-387 57 0
-387 178 0
-387 -69 0
387 43 -182 -57 -178 69 0
-388 20 0
-388 -137 0
-388 28 0
-388 172 0
-388 -10 0
388 -20 137 -28 -172 10 0
-389 85 0
-389 -160 0
-389 -20 0
-389 171 0
-389 -13 0
389 -85 160 20 -171 13 0
-390 187 0
-390 83 0
-390 -7 0
-390 175 0
-390 -13 0
390 -187 -83 7 -175 13 0
386 387 388 389 390 0
-391 7 0
-391 -72 0
-391 96 0
-391 -136 0
-391 78 0
391 -7 72 -96 136 -78 0
-392 -184 0
-392 129 0
-392 2 0
-392 -113 0
-392 27 0
392 184 -129 -2 113 -27 0
-393 -33 0
-393 57 0
-393 107 0
-393 -3 0
-393 73 0
393 33 -57 -107 3 -73 0
-394 -50 0
-394 115 0
-394 -38 0
-394 -132 0
-394 113 0
394 50 -115 38 132 -113 0
-395 1 0
-395 -105 0
-395 -180 0
-395 -62 0
-395 -68 0
395 -1 105 180 62 68 0
391 392 393 394 395 0
-396 55 0
-396 72 0
-396 124 0
-396 102 0
-396 -101 0
396 -55 -72 -124 -102 101 0
-397 134 0
-397 111 0
-397 59 0
-397 146 0
-397 -173 0
397 -134 -111 -59 -146 173 0
-398 156 0
-398 -61 0
-398 -6 0
-398 -152 0
-398 95 0
398 -156 61 6 152 -95 0
-399 114 0
-399 23 0
-399 124 0
-399 6 0
-399 -90 0
399 -114 -23 -124 -6 90 0
-400 83 0
-400 68 0
-400 -170 0
-400 169 0
-400 -52 0
400 -83 -68 170 -169 52 0
396 397 398 399 400 0
-401 34 0
-401 -94 0
-401 143 0
-401 -113 0
-401 158 0
401 -34 94 -143 113 -158 0
-402 -172 0
-402 -2 0
-402 -103 0
-402 -46 0
-402 8 0
402 172 2 103 46 -8 0
-403 187 0
-403 -174 0
-403 -106 0
-403 80 0
-403 148 0
403 -187 174 106 -80 -148 0
-404 18 0
-404 -68 0
-404 146 0
-404 131 0
-404 -96 0
404 -18 68 -146 -131 96 0
-405 174 0
-405 -92 0
-405 37 0
-405 -146 0
-405 189 0
405 -174 92 -37 146 -189 0
401 402 403 404 405 0
-406 -2 0
-406 172 0
-406 111 0
-406 142 0
-406 -164 0
406 2 -172 -111 -142 164 0
-407 -15 0
-407 34 0
-407 189 0
-407 121 0
-407 -146 0
407 15 -34 -189 -121 146 0
-408 70 0
-408 47 0
-408 -31 0
-408 -157 0
-408 89 0
408 -70 -47 31 157 -89 0
-409 -163 0
-409 -48 0
-409 -126 0
-409 -139 0
-409 109 0
409 163 48 126 139 -109 0
-410 -147 0
-410 -102 0
-410 59 0
-410 43 0
-410 -129 0
410 147 102 -59 -43 129 0
406 407 408 409 410 0
-411 34 0
-411 -70 0
-411 -80 0
-411 121 0
-411 69 0
411 -34 70 80 -121 -69 0
-412 155 0
-412 120 0
-412 69 0
-412 9 0
-412 -80 0
412 -155 -120 -69 -9 80 0
-413 72 0
-413 59 0
-413 -148 0
-413 147 0
-413 45 0
413 -72 -59 148 -147 -45 0
-414 -175 0
-414 143 0
-414 -69 0
-414 138 0
-414 11 0
414 175 -143 69 -138 -11 0
-415 -124 0
-415 7 0
-415 160 0
-415 111 0
-415 137 0
415 124 -7 -160 -111 -137 0
411 412 413 414 415 0
-416 -143 0
-416 118 0
-416 -84 0
-416 -161 0
-416 35 0
416 143 -118 84 161 -35 0
-417 61 0
-417 -68 0
-417 -42 0
-417 -118 0
-417 98 0
417 -61 68 42 118 -98 0
-418 -175 0
-418 82 0
-418 145 0
-418 2 0
-418 -170 0
418 175 -82 -145 -2 170 0
-419 145 0
-419 156 0
-419 9 0
-419 108 0
-419 40 0
419 -145 -156 -9 -108 -40 0
-420 -114 0
-420 -87 0
-420 -106 0
-420 -82 0
-420 73 0
420 114 87 106 82 -73 0
416 417 418 419 420 0
-421 115 0
-421 148 0
-421 -156 0
-421 -165 0
-421 154 0
421 -115 -148 156 165 -154 0
-422 -89 0
-422 111 0
-422 124 0
-422 6 0
-422 8 0
422 89 -111 -124 -6 -8 0
-423 189 0
-423 6 0
-423 -121 0
-423 82 0
-423 -77 0
423 -189 -6 121 -82 77 0
-424 88 0
-424 -187 0
-424 -121 0
-424 34 0
-424 106 0
424 -88 187 121 -34 -106 0
-425 16 0
-425 -139 0
-425 157 0
-425 171 0
-425 -15 0
425 -16 139 -157 -171 15 0
421 422 423 424 425 0
-426 101 0
-426 -47 0
-426 93 0
-426 -89 0
-426 -131 0
426 -101 47 -93 89 131 0
-427 43 0
-427 26 0
-427 35 0
-427 7 0
-427 -23 0
427 -43 -26 -35 -7 23 0
-428 74 0
-428 182 0
-428 -9 0
-428 -100 0
-428 170 0
428 -74 -182 9 100 -170 0
-429 49 0
-429 -133 0
-429 -190 0
-429 -22 0
-429 79 0
429 -49 133 190 22 -79 0
-430 182 0
-430 15 0
-430 -91 0
-430 -34 0
-430 125 0
430 -182 -15 91 34 -125 0
426 427 428 429 430 0
